n = 100;
C = 26369;
w = [318,590,158,993,797,591,160,991,46,491,777,740,382,544,527,1000,566,999,13,160,628,959,219,107,560,554,299,333,193,918,142,928,917,557,653,174,452,54,135,271,526,394,610,289,368,24,842,843,212,369,324,778,813,692,30,268,919,196,819,623,437,373,924,955,256,466,698,260,991,82,606,425,682,606,161,432,430,173,36,480,900,809,569,989,770,895,456,919,728,898,683,819,884,25,946,480,423,52,311,875];
p = [362,589,204,990,702,508,258,1039,-5,412,873,797,428,502,578,953,633,1071,-59,100,688,978,302,163,461,555,213,358,119,854,190,1000,987,574,648,237,479,64,189,294,610,327,570,211,400,-57,822,932,272,283,411,874,814,759,-54,321,954,185,846,579,440,401,842,865,294,493,613,289,1019,105,651,443,628,695,107,503,462,141,-22,453,855,877,600,1077,686,915,512,909,728,868,777,726,890,115,920,528,515,114,308,938];
